%%% static parameters %%%
timespan = 1;
Fact = [3];
Distr1 = [10];
Distr2 = [20];
Clients_N = [40];
Demand_W = [15];
Lt0 = [4];
Lt1 = [4];
SS_ = [0.85];
DS_D = [7];
K = [200];
MA = [500];
%%% dynamic parameters %%%
lost_ratio_sales_ret_th = 0.4997954315841614;
lost_ratio_sales_ret_w = 95;
lost_ratio_sales_dis_th = 0.8699914457919427;
lost_ratio_sales_dis_w = 67;
lost_ratio_sales_fac_th = 0.6339653719204852;
lost_ratio_sales_fac_w = 42;
stock_customer_MA_mean_relative_th = 0.5029546818181027;
stock_customer_MA_mean_relative_w = 64;
stock_distributor_MA_mean_relative_th = 0.9409338873961415;
stock_distributor_MA_mean_relative_w = 49;
stock_retailer_MA_mean_relative_th = 0.560730712946706;
stock_retailer_MA_mean_relative_w = 62;
stock_factory_MA_mean_relative_th = 0.939964441706538;
stock_factory_MA_mean_relative_w = 2;
